(set-logic ALL)
(set-option :produce-models true)
(declare-sort BoundSet 0)
(declare-sort UnboundSet 0)
(set-option :finite-model-find true)
(declare-fun IsSittingOn (BoundSet BoundSet) Bool)
(declare-fun IsStandingNearby (BoundSet BoundSet) Bool)
(assert (not (=> (exists ((a BoundSet)) (exists ((b BoundSet)) (IsSittingOn b a))) (exists ((c BoundSet)) (exists ((a BoundSet)) (IsStandingNearby a c))))))
(check-sat)
(get-model)